row=6;
column=6;
left=[0, 6, 11, 14, 11, 0];
right=[0, 0, 11, 6, 0, 14];
top=[0, 6, 0, 0, 11, 17];
bottom=[13, 11, 0, 10, 9, 0];
Board=[|0,0,0,0,0,0|0,0,0,0,0,0|1,4,3,0,0,0|0,0,0,2,0,0|0,0,0,0,0,0|0,0,0,0,0,0|]